DATASET = "thpack5";
INSTANCE = "060";

WIDTH = 233;
HEIGHT = 220;
LENGTH = 587;

NO_OF_SHAPES = 12;
size = [|
  78,72,58 |
  107,57,57 |
  72,64,37 |
  93,66,26 |
  116,67,35 |
  101,56,39 |
  108,100,39 |
  64,55,33 |
  73,65,53 |
  106,41,35 |
  82,78,28 |
  79,59,58 |
|];

verticality = [|
  1,1,1 |
  1,1,1 |
  1,1,1 |
  0,0,1 |
  0,1,1 |
  0,1,1 |
  0,0,1 |
  1,1,1 |
  1,1,1 |
  0,1,1 |
  0,0,1 |
  1,1,1 |
|];

box_count = [
  10,
  11,
  15,
  13,
  12,
  11,
  9,
  9,
  7,
  10,
  11,
  9,
];
